# Objective value = 1.2013900000000001e+02
e_1_204 0
e_1_367 0
e_1_329 0
e_1_59 0
e_1_128 0
e_1_144 0
e_1_153 0
e_1_444 0
e_2_148 0
e_2_448 0
e_2_286 0
e_2_126 0
e_2_397 0
e_2_30 0
e_2_153 0
e_2_460 0
e_3_51 0
e_3_214 0
e_3_153 0
e_4_64 0
e_4_98 0
e_4_85 0
e_4_6 0
e_4_333 0
e_4_407 0
e_4_108 0
e_4_153 0
e_5_459 0
e_5_153 0
e_5_481 0
e_6_336 0
e_6_102 0
e_6_422 0
e_6_268 0
e_6_364 0
e_6_153 0
e_7_417 0
e_7_86 0
e_7_153 0
e_7_348 0
e_7_56 0
e_7_373 0
e_7_88 0
e_8_37 0
e_8_300 0
e_8_309 0
e_8_31 0
e_8_105 0
e_8_215 0
e_8_62 0
e_8_205 0
e_8_131 0
e_9_211 0
e_9_67 0
e_9_11 0
e_9_153 0
e_9_370 0
e_10_276 0
e_10_26 0
e_10_393 0
e_10_149 0
e_10_4 0
e_10_434 0
e_10_316 0
e_10_429 0
e_10_210 0
e_11_459 0
e_11_153 0
e_11_481 0
e_12_446 0
e_12_206 0
e_12_485 0
e_12_436 0
e_12_153 0
e_12_377 0
e_13_381 0
e_13_153 0
e_13_463 0
e_13_275 0
e_13_409 0
e_13_125 0
e_13_326 0
e_14_148 0
e_14_283 0
e_14_460 0
e_14_286 0
e_14_126 0
e_14_397 0
e_14_30 0
e_14_153 0
e_14_448 0
e_15_276 0
e_15_26 0
e_15_210 0
e_15_149 0
e_15_4 0
e_15_316 0
e_15_429 0
e_15_434 0
e_15_335 0
e_16_173 0
e_16_177 0
e_16_68 0
e_16_324 0
e_16_143 0
e_16_17 0
e_16_351 0
e_16_153 0
e_16_43 0
e_17_412 0
e_17_153 0
e_17_406 0
e_18_141 0
e_18_392 0
e_18_153 0
e_19_15 0
e_19_104 0
e_19_153 0
e_19_152 0
e_20_401 0
e_20_416 0
e_20_10 0
e_20_270 0
e_20_359 0
e_20_218 0
e_20_298 0
e_20_22 0
e_20_153 0
e_20_96 0
e_21_433 0
e_21_390 0
e_21_132 0
e_21_261 0
e_21_457 0
e_21_408 0
e_21_153 0
e_21_312 0
e_22_387 0
e_22_453 0
e_22_153 1
e_23_387 0
e_23_453 0
e_23_153 0
e_24_221 0
e_24_115 0
e_24_402 0
e_24_278 0
e_24_70 0
e_24_225 0
e_24_484 0
e_24_153 0
e_24_343 0
e_25_381 0
e_25_153 0
e_25_463 0
e_25_275 0
e_25_125 0
e_25_326 0
e_26_148 0
e_26_283 0
e_26_460 0
e_26_286 0
e_26_126 0
e_26_30 0
e_26_153 0
e_26_448 0
e_27_211 0
e_27_67 0
e_27_11 0
e_27_153 0
e_27_370 0
e_28_64 0
e_28_75 0
e_28_98 0
e_28_85 0
e_28_6 0
e_28_333 0
e_28_407 0
e_28_108 0
e_28_153 0
e_29_221 0
e_29_115 0
e_29_278 0
e_29_225 0
e_29_70 0
e_29_484 0
e_29_153 0
e_29_343 0
e_30_412 0
e_30_153 1
e_30_406 0
e_31_173 0
e_31_68 0
e_31_324 0
e_31_143 0
e_31_17 0
e_31_351 0
e_31_153 0
e_31_43 0
e_32_417 0
e_32_86 0
e_32_153 0
e_32_348 0
e_32_56 0
e_32_8 0
e_32_373 0
e_32_88 0
e_33_173 0
e_33_177 0
e_33_68 0
e_33_324 0
e_33_143 0
e_33_17 0
e_33_351 0
e_33_153 0
e_33_43 0
e_34_68 0
e_34_177 0
e_34_173 0
e_34_324 0
e_34_17 0
e_34_351 0
e_34_153 0
e_34_43 0
e_35_387 0
e_35_453 0
e_35_153 0
e_36_148 0
e_36_283 0
e_36_460 0
e_36_286 0
e_36_126 0
e_36_397 0
e_36_30 0
e_36_153 0
e_36_448 0
e_37_204 0
e_37_329 0
e_37_59 0
e_37_128 0
e_37_367 0
e_37_153 0
e_37_444 0
e_38_388 0
e_38_172 0
e_38_284 0
e_38_153 0
e_38_198 0
e_39_446 0
e_39_46 0
e_39_485 0
e_39_436 0
e_39_153 0
e_39_377 0
e_40_64 0
e_40_75 0
e_40_98 0
e_40_85 0
e_40_6 0
e_40_333 0
e_40_407 0
e_40_153 0
e_41_73 0
e_41_303 0
e_41_153 0
e_42_211 0
e_42_67 0
e_42_11 0
e_42_153 0
e_42_370 0
e_43_240 0
e_43_196 0
e_43_153 0
e_44_49 0
e_44_151 0
e_44_269 0
e_44_267 0
e_44_153 0
e_45_211 0
e_45_67 0
e_45_11 0
e_45_153 0
e_45_370 0
e_46_37 0
e_46_300 0
e_46_309 0
e_46_31 0
e_46_105 0
e_46_215 0
e_46_62 0
e_46_205 0
e_46_7 0
e_47_147 0
e_47_241 0
e_47_452 0
e_47_346 0
e_47_41 0
e_47_153 0
e_48_309 0
e_48_31 0
e_48_131 0
e_48_105 0
e_48_215 0
e_48_62 0
e_48_7 0
e_48_205 0
e_48_300 0
e_49_109 0
e_49_153 0
e_49_127 0
e_50_115 0
e_50_402 0
e_50_225 0
e_50_278 0
e_50_70 0
e_50_484 0
e_50_153 0
e_50_343 0
e_51_37 0
e_51_309 0
e_51_31 0
e_51_131 0
e_51_105 0
e_51_215 0
e_51_7 0
e_51_205 0
e_51_300 0
e_52_282 0
e_52_153 0
e_53_64 0
e_53_75 0
e_53_98 0
e_53_85 0
e_53_6 0
e_53_333 0
e_53_407 0
e_53_108 0
e_53_153 0
e_54_137 0
e_54_5 0
e_54_48 0
e_54_153 0
e_54_107 0
e_55_37 0
e_55_205 0
e_55_215 0
e_55_131 0
e_55_105 0
e_55_309 0
e_55_62 0
e_55_7 0
e_55_300 0
e_56_73 0
e_56_303 0
e_56_153 0
e_57_459 0
e_57_153 0
e_57_481 0
e_58_216 0
e_58_15 0
e_58_104 0
e_58_153 0
e_58_152 0
e_59_73 0
e_59_303 0
e_59_153 0
e_60_57 0
e_60_234 0
e_60_153 0
e_61_412 0
e_61_153 0
e_62_214 0
e_62_153 0
e_63_216 0
e_63_15 0
e_63_104 0
e_63_153 0
e_63_152 0
e_64_412 0
e_64_153 0
e_64_406 0
e_65_49 0
e_65_151 0
e_65_269 0
e_65_267 0
e_65_153 0
e_66_161 0
e_66_241 0
e_66_452 0
e_66_346 0
e_66_147 0
e_66_153 0
e_66_41 0
e_67_276 0
e_67_26 0
e_67_393 0
e_67_149 0
e_67_4 0
e_67_316 0
e_67_210 0
e_67_434 0
e_67_335 0
e_68_336 0
e_68_102 0
e_68_422 0
e_68_134 0
e_68_153 0
e_68_364 0
e_69_137 0
e_69_5 0
e_69_48 0
e_69_153 0
e_69_107 0
e_70_412 0
e_70_153 0
e_70_406 0
e_71_401 0
e_71_416 0
e_71_432 0
e_71_10 0
e_71_270 0
e_71_359 0
e_71_298 0
e_71_22 0
e_71_153 0
e_71_96 0
e_72_374 0
e_72_57 0
e_72_234 0
e_72_153 0
e_73_37 0
e_73_309 0
e_73_31 0
e_73_131 0
e_73_215 0
e_73_62 0
e_73_7 0
e_73_205 0
e_73_300 0
e_74_401 0
e_74_416 0
e_74_432 0
e_74_10 0
e_74_359 0
e_74_218 0
e_74_298 0
e_74_22 0
e_74_153 0
e_74_96 0
e_75_276 0
e_75_26 0
e_75_393 0
e_75_149 0
e_75_316 0
e_75_434 0
e_75_429 0
e_75_210 0
e_75_335 0
e_76_387 0
e_76_453 0
e_76_153 0
e_77_89 0
e_77_304 0
e_77_426 0
e_77_55 0
e_77_192 0
e_77_153 0
e_77_271 0
e_78_137 0
e_78_5 0
e_78_48 0
e_78_153 0
e_78_107 0
e_79_49 0
e_79_151 0
e_79_269 0
e_79_267 0
e_79_153 0
e_80_240 0
e_80_196 0
e_80_153 0
e_81_64 0
e_81_75 0
e_81_98 0
e_81_85 0
e_81_6 0
e_81_333 0
e_81_407 0
e_81_108 0
e_81_153 0
e_82_148 0
e_82_283 0
e_82_286 0
e_82_126 0
e_82_397 0
e_82_30 0
e_82_153 0
e_82_448 0
e_83_161 0
e_83_452 0
e_83_346 0
e_83_147 0
e_83_153 0
e_83_41 0
e_84_347 0
e_84_97 0
e_84_356 0
e_84_139 0
e_84_160 1
e_84_285 0
e_84_179 0
e_84_119 0
e_84_35 0
e_84_153 0
e_84_399 0
e_85_404 0
e_85_229 0
e_85_321 0
e_85_123 0
e_85_153 0
e_86_374 0
e_86_57 0
e_86_234 0
e_86_153 0
e_87_354 0
e_87_90 0
e_87_178 0
e_87_153 0
e_88_158 1
e_88_282 0
e_88_153 0
e_89_443 0
e_89_170 0
e_89_153 0
e_90_109 0
e_90_153 0
e_90_127 0
e_91_381 0
e_91_153 0
e_91_463 0
e_91_275 0
e_91_409 0
e_91_125 0
e_91_326 0
e_92_64 0
e_92_75 0
e_92_98 0
e_92_85 0
e_92_6 0
e_92_333 0
e_92_407 1
e_92_108 0
e_92_153 0
e_93_347 0
e_93_97 0
e_93_356 0
e_93_139 0
e_93_160 0
e_93_285 0
e_93_179 0
e_93_119 0
e_93_399 0
e_93_153 0
e_94_173 0
e_94_177 0
e_94_68 0
e_94_324 0
e_94_143 0
e_94_17 0
e_94_351 0
e_94_153 0
e_94_43 0
e_95_417 0
e_95_86 0
e_95_153 0
e_95_348 0
e_95_56 0
e_95_8 0
e_95_373 0
e_95_88 0
e_96_89 0
e_96_426 0
e_96_192 0
e_96_55 0
e_96_153 0
e_96_271 0
e_97_37 0
e_97_309 0
e_97_31 0
e_97_131 0
e_97_105 0
e_97_215 0
e_97_62 0
e_97_7 0
e_97_300 0
e_98_240 0
e_98_196 0
e_98_153 0
e_99_347 0
e_99_97 0
e_99_356 0
e_99_139 0
e_99_160 0
e_99_179 0
e_99_119 0
e_99_35 0
e_99_153 0
e_99_399 0
e_100_173 0
e_100_177 0
e_100_68 0
e_100_324 0
e_100_143 0
e_100_17 0
e_100_351 0
e_100_153 0
e_100_43 0
e_101_347 0
e_101_97 0
e_101_356 0
e_101_139 0
e_101_160 0
e_101_285 0
e_101_119 0
e_101_35 0
e_101_153 0
e_101_399 0
e_102_276 0
e_102_26 0
e_102_393 0
e_102_149 0
e_102_4 0
e_102_316 0
e_102_429 0
e_102_434 0
e_102_335 0
e_103_446 0
e_103_46 0
e_103_206 0
e_103_485 0
e_103_436 0
e_103_153 0
e_103_377 0
e_104_109 0
e_104_153 0
e_104_127 0
e_105_148 0
e_105_283 0
e_105_286 0
e_105_126 0
e_105_397 0
e_105_30 1
e_105_153 0
e_105_460 0
e_106_216 0
e_106_15 0
e_106_104 0
e_106_153 0
e_106_152 0
e_107_109 0
e_107_153 0
e_107_127 0
e_108_161 0
e_108_241 0
e_108_452 0
e_108_346 0
e_108_41 0
e_108_153 0
e_109_37 0
e_109_309 0
e_109_31 0
e_109_131 0
e_109_105 0
e_109_215 0
e_109_62 0
e_109_7 0
e_109_300 0
e_110_412 0
e_110_153 0
e_110_406 0
e_111_417 0
e_111_86 0
e_111_153 0
e_111_348 0
e_111_56 0
e_111_8 0
e_111_373 0
e_111_88 0
e_112_148 0
e_112_283 0
e_112_460 0
e_112_286 0
e_112_126 0
e_112_397 0
e_112_30 0
e_112_153 0
e_112_448 0
e_113_161 0
e_113_241 0
e_113_452 0
e_113_346 0
e_113_147 0
e_113_153 0
e_113_41 0
e_114_49 0
e_114_151 0
e_114_269 0
e_114_267 0
e_114_153 0
e_115_276 0
e_115_26 0
e_115_393 0
e_115_149 0
e_115_4 0
e_115_434 0
e_115_316 0
e_115_429 0
e_115_210 0
e_116_388 0
e_116_172 0
e_116_284 0
e_116_153 0
e_116_198 0
e_117_347 0
e_117_97 0
e_117_139 0
e_117_160 0
e_117_285 0
e_117_179 0
e_117_119 0
e_117_35 0
e_117_153 0
e_117_399 0
e_118_387 0
e_118_453 0
e_118_153 0
e_119_381 0
e_119_153 0
e_119_275 0
e_119_409 0
e_119_125 0
e_119_326 0
e_120_250 0
e_120_361 0
e_120_138 0
e_120_153 0
e_120_302 0
e_121_221 0
e_121_115 0
e_121_402 0
e_121_278 0
e_121_225 0
e_121_484 0
e_121_153 0
e_121_343 0
e_122_390 0
e_122_132 0
e_122_235 0
e_122_433 0
e_122_457 0
e_122_408 0
e_122_153 0
e_122_312 0
e_123_459 0
e_123_153 0
e_123_481 0
e_124_67 0
e_124_11 0
e_124_153 0
e_124_211 0
e_125_354 0
e_125_90 0
e_125_178 0
e_125_153 0
e_126_240 0
e_126_196 0
e_126_153 0
e_127_276 0
e_127_26 0
e_127_393 0
e_127_149 0
e_127_4 0
e_127_316 0
e_127_429 0
e_127_434 0
e_127_335 0
e_128_443 0
e_128_170 0
e_128_153 0
e_129_75 0
e_129_98 0
e_129_85 0
e_129_6 0
e_129_333 0
e_129_407 0
e_129_108 0
e_129_153 0
e_130_221 0
e_130_115 0
e_130_402 0
e_130_278 0
e_130_70 0
e_130_225 0
e_130_153 0
e_130_343 0
e_131_64 0
e_131_75 0
e_131_98 0
e_131_85 0
e_131_6 0
e_131_333 0
e_131_108 0
e_131_153 0
e_132_276 0
e_132_26 0
e_132_393 0
e_132_149 0
e_132_4 0
e_132_316 0
e_132_429 0
e_132_434 0
e_132_335 0
e_133_89 0
e_133_304 0
e_133_426 0
e_133_55 0
e_133_192 0
e_133_153 0
e_133_271 0
e_134_443 0
e_134_170 0
e_134_153 0
e_135_51 0
e_135_214 0
e_135_153 0
e_136_49 0
e_136_151 0
e_136_269 0
e_136_267 0
e_136_153 0
e_137_276 0
e_137_26 0
e_137_393 0
e_137_149 0
e_137_4 0
e_137_434 0
e_137_429 0
e_137_210 0
e_137_335 0
e_138_37 0
e_138_300 0
e_138_309 0
e_138_31 0
e_138_105 0
e_138_215 0
e_138_62 0
e_138_205 0
e_138_7 0
e_139_276 0
e_139_26 0
e_139_393 0
e_139_149 0
e_139_4 0
e_139_316 0
e_139_429 0
e_139_434 0
e_139_335 0
e_140_446 0
e_140_46 0
e_140_206 0
e_140_485 0
e_140_436 0
e_140_153 0
e_140_377 0
e_141_276 0
e_141_26 0
e_141_393 0
e_141_4 0
e_141_434 0
e_141_316 0
e_141_429 0
e_141_210 0
e_141_335 0
e_142_387 0
e_142_453 0
e_142_153 0
e_143_388 0
e_143_172 0
e_143_284 0
e_143_153 0
e_143_198 0
e_144_309 0
e_144_31 0
e_144_131 0
e_144_105 0
e_144_215 0
e_144_62 0
e_144_7 0
e_144_205 0
e_144_300 0
e_145_141 0
e_145_392 0
e_145_153 0
e_146_446 0
e_146_46 0
e_146_206 0
e_146_485 0
e_146_436 0
e_146_153 0
e_146_377 0
e_147_443 0
e_147_170 0
e_147_153 0
e_148_161 0
e_148_241 0
e_148_452 0
e_148_346 0
e_148_147 0
e_148_153 0
e_149_49 0
e_149_151 0
e_149_267 0
e_149_153 0
e_150_148 0
e_150_283 0
e_150_460 0
e_150_286 0
e_150_126 0
e_150_397 0
e_150_30 0
e_150_153 0
e_150_448 0
e_151_459 0
e_151_153 0
e_151_481 0
e_152_37 0
e_152_205 0
e_152_31 0
e_152_131 0
e_152_105 0
e_152_309 0
e_152_62 0
e_152_7 0
e_152_300 0
e_153_363 1
e_153_398 1
e_153_253 1
e_153_239 1
e_153_258 1
e_154_51 0
e_154_214 0
e_154_153 0
e_155_137 0
e_155_5 0
e_155_48 0
e_155_153 0
e_155_107 0
e_156_381 0
e_156_153 0
e_156_463 0
e_156_275 0
e_156_409 0
e_156_125 0
e_156_326 0
e_157_137 0
e_157_5 0
e_157_153 0
e_157_107 0
e_158_4 0
e_158_26 0
e_158_393 0
e_158_149 0
e_158_316 0
e_158_434 1
e_158_429 0
e_158_210 0
e_158_335 0
e_159_64 0
e_159_75 0
e_159_98 0
e_159_85 0
e_159_6 0
e_159_407 0
e_159_108 0
e_159_153 0
e_160_141 0
e_160_392 0
e_160_153 1
e_161_37 0
e_161_205 0
e_161_31 0
e_161_131 0
e_161_105 0
e_161_215 0
e_161_62 0
e_161_7 0
e_161_300 0
e_162_64 0
e_162_75 0
e_162_85 0
e_162_6 0
e_162_333 0
e_162_407 0
e_162_108 0
e_162_153 0
e_163_283 0
e_163_448 0
e_163_286 0
e_163_126 0
e_163_397 0
e_163_30 0
e_163_153 0
e_163_460 0
e_164_240 0
e_164_196 0
e_164_153 0
e_165_204 0
e_165_367 0
e_165_329 0
e_165_59 0
e_165_128 0
e_165_144 0
e_165_153 0
e_165_444 0
e_166_141 0
e_166_153 0
e_167_240 0
e_167_196 0
e_167_153 0
e_168_417 0
e_168_153 0
e_168_348 0
e_168_56 0
e_168_8 0
e_168_373 0
e_168_88 0
e_169_354 0
e_169_90 0
e_169_153 0
e_170_276 0
e_170_26 0
e_170_393 0
e_170_149 0
e_170_316 0
e_170_434 0
e_170_429 0
e_170_210 0
e_170_335 0
e_171_374 0
e_171_57 0
e_171_234 0
e_171_153 0
e_172_276 0
e_172_393 0
e_172_149 0
e_172_4 0
e_172_434 0
e_172_316 0
e_172_429 0
e_172_210 0
e_172_335 0
e_173_161 0
e_173_241 0
e_173_452 0
e_173_147 0
e_173_153 0
e_173_41 0
e_174_49 0
e_174_151 0
e_174_269 0
e_174_267 0
e_174_153 0
e_175_354 0
e_175_90 0
e_175_178 0
e_175_153 0
e_176_211 0
e_176_67 0
e_176_11 0
e_176_153 0
e_176_370 0
e_177_37 0
e_177_205 0
e_177_215 0
e_177_131 0
e_177_105 0
e_177_309 0
e_177_62 0
e_177_7 0
e_177_300 0
e_178_37 0
e_178_205 0
e_178_31 0
e_178_131 0
e_178_105 0
e_178_215 0
e_178_62 0
e_178_7 0
e_178_300 0
e_179_221 0
e_179_115 0
e_179_402 0
e_179_278 0
e_179_70 0
e_179_225 0
e_179_484 0
e_179_153 0
e_180_347 0
e_180_97 0
e_180_356 0
e_180_139 0
e_180_160 0
e_180_285 0
e_180_179 0
e_180_119 0
e_180_35 0
e_180_153 0
e_180_399 0
e_181_204 0
e_181_367 0
e_181_329 0
e_181_59 0
e_181_128 0
e_181_144 0
e_181_153 0
e_181_444 0
e_182_153 0
e_182_127 0
e_183_148 0
e_183_283 0
e_183_286 0
e_183_126 0
e_183_397 0
e_183_460 0
e_183_153 0
e_183_448 0
e_184_336 0
e_184_422 0
e_184_268 0
e_184_134 0
e_184_153 0
e_184_364 0
e_185_5 0
e_185_48 0
e_185_153 0
e_185_107 0
e_186_401 0
e_186_416 0
e_186_432 0
e_186_10 0
e_186_270 0
e_186_359 0
e_186_218 0
e_186_298 0
e_186_22 0
e_186_153 0
e_186_96 0
e_187_387 0
e_187_453 0
e_187_153 0
e_188_443 0
e_188_170 0
e_188_153 0
e_189_137 0
e_189_5 0
e_189_48 0
e_189_153 0
e_189_107 0
e_190_387 0
e_190_453 0
e_190_153 0
e_191_173 0
e_191_177 0
e_191_68 0
e_191_324 0
e_191_143 0
e_191_17 0
e_191_351 0
e_191_153 0
e_191_43 0
e_192_374 0
e_192_57 0
e_192_234 0
e_192_153 0
e_193_412 0
e_193_153 0
e_193_406 0
e_194_51 0
e_194_214 0
e_194_153 0
e_195_173 0
e_195_177 0
e_195_68 0
e_195_324 0
e_195_143 0
e_195_17 0
e_195_351 0
e_195_153 0
e_195_43 0
e_196_276 0
e_196_26 0
e_196_393 0
e_196_149 0
e_196_4 0
e_196_316 0
e_196_210 0
e_196_434 0
e_196_335 0
e_197_148 0
e_197_283 0
e_197_460 0
e_197_286 0
e_197_126 0
e_197_397 0
e_197_30 0
e_197_153 0
e_197_448 0
e_198_37 0
e_198_309 0
e_198_31 0
e_198_131 0
e_198_215 0
e_198_62 0
e_198_7 0
e_198_205 0
e_198_300 0
e_199_401 0
e_199_416 0
e_199_432 0
e_199_10 0
e_199_270 0
e_199_359 0
e_199_218 0
e_199_298 0
e_199_96 0
e_199_153 0
e_200_177 0
e_200_68 0
e_200_324 0
e_200_143 0
e_200_17 0
e_200_351 0
e_200_153 0
e_200_173 0
e_201_216 0
e_201_15 0
e_201_104 0
e_201_153 0
e_201_152 0
e_202_404 0
e_202_229 0
e_202_321 0
e_202_123 0
e_202_153 0
e_203_412 0
e_203_153 0
e_203_406 0
e_204_374 0
e_204_57 0
e_204_234 0
e_204_153 0
e_205_347 0
e_205_356 0
e_205_139 0
e_205_160 0
e_205_285 0
e_205_179 0
e_205_119 0
e_205_35 0
e_205_153 0
e_205_399 0
e_206_73 0
e_206_303 0
e_206_153 0
e_207_401 0
e_207_416 0
e_207_432 0
e_207_10 0
e_207_270 0
e_207_359 0
e_207_218 0
e_207_298 0
e_207_22 0
e_207_153 0
e_207_96 0
e_208_158 0
e_208_282 0
e_208_153 0
e_209_221 0
e_209_402 0
e_209_225 0
e_209_278 0
e_209_70 0
e_209_484 0
e_209_153 0
e_209_343 0
e_210_347 0
e_210_97 0
e_210_356 0
e_210_160 0
e_210_285 0
e_210_179 0
e_210_119 0
e_210_35 0
e_210_153 0
e_210_399 0
e_211_109 0
e_211_153 0
e_211_127 0
e_212_304 0
e_212_426 0
e_212_192 0
e_212_55 0
e_212_153 0
e_212_271 0
e_213_347 0
e_213_97 0
e_213_356 0
e_213_139 0
e_213_160 0
e_213_285 0
e_213_179 0
e_213_119 0
e_213_35 0
e_213_153 0
e_213_399 0
e_214_276 0
e_214_26 0
e_214_393 0
e_214_149 0
e_214_4 0
e_214_316 0
e_214_429 0
e_214_210 0
e_214_335 0
e_215_15 0
e_215_104 0
e_215_153 0
e_215_216 0
e_216_459 0
e_216_153 0
e_216_481 0
e_217_141 0
e_217_392 0
e_217_153 0
e_218_132 0
e_218_390 0
e_218_261 0
e_218_235 0
e_218_433 0
e_218_457 0
e_218_408 0
e_218_153 0
e_219_148 0
e_219_283 0
e_219_460 0
e_219_286 0
e_219_126 0
e_219_397 0
e_219_30 0
e_219_153 0
e_219_448 0
e_220_51 0
e_220_214 0
e_220_153 0
e_221_404 0
e_221_229 0
e_221_321 0
e_221_153 0
e_222_211 0
e_222_67 0
e_222_11 0
e_222_153 0
e_222_370 0
e_223_109 0
e_223_153 0
e_223_127 0
e_224_347 0
e_224_97 0
e_224_356 0
e_224_139 0
e_224_285 0
e_224_179 0
e_224_119 0
e_224_35 0
e_224_153 0
e_224_399 0
e_225_37 0
e_225_205 0
e_225_31 0
e_225_131 0
e_225_105 0
e_225_215 0
e_225_62 0
e_225_7 0
e_225_300 0
e_226_51 0
e_226_214 0
e_226_153 0
e_227_64 0
e_227_75 0
e_227_98 0
e_227_85 0
e_227_6 0
e_227_333 0
e_227_407 0
e_227_108 0
e_227_153 0
e_228_132 0
e_228_390 0
e_228_261 0
e_228_235 0
e_228_433 0
e_228_457 0
e_228_408 0
e_228_153 0
e_228_312 0
e_229_4 0
e_229_26 0
e_229_393 0
e_229_149 0
e_229_316 0
e_229_434 0
e_229_429 0
e_229_210 0
e_229_335 0
e_230_240 0
e_230_153 0
e_231_390 0
e_231_132 0
e_231_235 0
e_231_261 0
e_231_457 0
e_231_408 0
e_231_153 0
e_231_312 0
e_232_221 0
e_232_115 0
e_232_402 0
e_232_70 0
e_232_225 0
e_232_484 0
e_232_153 0
e_232_343 0
e_233_173 0
e_233_177 0
e_233_68 0
e_233_324 0
e_233_143 0
e_233_17 0
e_233_351 0
e_233_153 0
e_233_43 0
e_234_37 0
e_234_309 0
e_234_31 0
e_234_131 0
e_234_105 0
e_234_215 0
e_234_62 0
e_234_7 0
e_234_300 0
e_235_172 0
e_235_388 0
e_235_153 0
e_235_198 0
e_236_49 0
e_236_151 0
e_236_269 0
e_236_267 0
e_236_153 0
e_237_250 0
e_237_361 0
e_237_138 0
e_237_153 0
e_238_132 0
e_238_390 0
e_238_261 0
e_238_235 0
e_238_433 0
e_238_457 0
e_238_153 0
e_238_312 0
e_239_154 0
e_239_472 0
e_239_53 0
e_239_114 0
e_239_337 0
e_239_213 0
e_239_150 0
e_239_319 0
e_239_244 0
e_239_153 1
e_239_111 0
e_240_37 0
e_240_300 0
e_240_309 0
e_240_31 0
e_240_105 0
e_240_215 0
e_240_62 0
e_240_205 0
e_240_131 0
e_241_276 0
e_241_26 0
e_241_393 0
e_241_149 0
e_241_4 0
e_241_434 0
e_241_316 0
e_241_429 0
e_241_210 0
e_242_367 0
e_242_329 0
e_242_59 0
e_242_128 0
e_242_144 0
e_242_153 0
e_242_444 0
e_243_73 0
e_243_303 0
e_243_153 0
e_244_216 0
e_244_15 0
e_244_104 0
e_244_153 0
e_244_152 0
e_245_417 0
e_245_153 0
e_245_348 0
e_245_56 0
e_245_8 0
e_245_86 0
e_245_88 0
e_246_204 0
e_246_59 0
e_246_128 0
e_246_144 0
e_246_367 0
e_246_153 0
e_246_444 0
e_247_51 0
e_247_214 0
e_247_153 0
e_248_401 0
e_248_416 0
e_248_432 0
e_248_10 0
e_248_270 0
e_248_359 0
e_248_218 0
e_248_298 0
e_248_22 0
e_248_153 0
e_249_161 0
e_249_241 0
e_249_452 0
e_249_346 0
e_249_147 0
e_249_153 0
e_249_41 0
e_250_109 0
e_250_153 0
e_250_127 0
e_251_141 0
e_251_392 0
e_251_153 0
e_252_196 0
e_252_153 0
e_253_195 0
e_253_135 0
e_253_112 0
e_253_153 0
e_253_264 0
e_253_174 0
e_253_466 0
e_253_95 0
e_253_92 1
e_253_207 0
e_253_480 0
e_254_250 0
e_254_361 0
e_254_138 0
e_254_153 0
e_254_302 0
e_255_161 0
e_255_241 0
e_255_452 0
e_255_346 0
e_255_147 0
e_255_153 0
e_255_41 0
e_256_170 0
e_256_153 0
e_257_388 0
e_257_284 0
e_257_153 0
e_257_198 0
e_258_272 0
e_258_1 0
e_258_84 1
e_258_186 0
e_258_449 0
e_258_32 0
e_258_33 0
e_258_473 0
e_258_383 0
e_258_385 0
e_258_153 0
e_259_49 0
e_259_151 0
e_259_269 0
e_259_267 0
e_259_153 0
e_260_404 0
e_260_229 0
e_260_321 0
e_260_123 0
e_260_153 0
e_261_361 0
e_261_302 0
e_261_138 0
e_261_153 0
e_262_387 0
e_262_153 0
e_263_97 0
e_263_356 0
e_263_139 0
e_263_160 0
e_263_285 0
e_263_179 0
e_263_119 0
e_263_35 0
e_263_153 0
e_263_399 0
e_264_347 0
e_264_97 0
e_264_356 0
e_264_139 0
e_264_160 0
e_264_285 0
e_264_179 0
e_264_119 0
e_264_35 0
e_264_153 0
e_264_399 0
e_265_229 0
e_265_321 0
e_265_123 0
e_265_153 0
e_266_347 0
e_266_97 0
e_266_356 0
e_266_139 0
e_266_160 0
e_266_285 0
e_266_179 0
e_266_35 0
e_266_153 0
e_266_399 0
e_267_37 0
e_267_309 0
e_267_31 0
e_267_131 0
e_267_105 0
e_267_215 0
e_267_62 0
e_267_205 0
e_267_7 0
e_268_158 0
e_268_282 0
e_268_153 0
e_269_276 0
e_269_26 0
e_269_393 0
e_269_4 0
e_269_434 0
e_269_316 0
e_269_429 0
e_269_210 0
e_269_335 0
e_270_141 0
e_270_392 0
e_270_153 0
e_271_73 0
e_271_303 0
e_271_153 0
e_272_49 0
e_272_151 0
e_272_269 0
e_272_267 0
e_272_153 0
e_273_388 0
e_273_172 0
e_273_284 0
e_273_153 0
e_273_198 0
e_274_49 0
e_274_151 0
e_274_269 0
e_274_267 0
e_274_153 0
e_275_443 0
e_275_170 0
e_275_153 0
e_276_173 0
e_276_177 0
e_276_68 0
e_276_324 0
e_276_143 0
e_276_17 0
e_276_153 0
e_276_43 0
e_277_250 0
e_277_361 0
e_277_138 0
e_277_153 0
e_277_302 0
e_278_250 0
e_278_302 0
e_278_138 0
e_278_153 0
e_279_367 0
e_279_329 0
e_279_128 0
e_279_144 0
e_279_204 0
e_279_153 0
e_279_444 0
e_280_401 0
e_280_416 0
e_280_432 0
e_280_10 0
e_280_270 0
e_280_359 0
e_280_218 0
e_280_298 0
e_280_22 0
e_280_153 0
e_280_96 0
e_281_417 0
e_281_86 0
e_281_153 0
e_281_348 0
e_281_56 0
e_281_8 0
e_281_373 0
e_282_37 0
e_282_205 0
e_282_215 0
e_282_131 0
e_282_105 0
e_282_309 0
e_282_62 0
e_282_7 0
e_282_300 0
e_283_336 0
e_283_102 0
e_283_422 0
e_283_268 0
e_283_134 0
e_283_153 0
e_284_109 0
e_284_153 0
e_284_127 0
e_285_67 0
e_285_11 0
e_285_153 0
e_285_370 0
e_286_404 0
e_286_229 0
e_286_321 0
e_286_123 0
e_286_153 0
e_287_51 0
e_287_214 0
e_287_153 0
e_288_446 0
e_288_46 0
e_288_206 0
e_288_485 0
e_288_153 0
e_288_377 0
e_289_336 0
e_289_102 0
e_289_422 0
e_289_268 0
e_289_134 0
e_289_153 0
e_289_364 0
e_290_153 0
e_290_406 0
e_291_148 0
e_291_283 0
e_291_460 0
e_291_286 0
e_291_397 0
e_291_30 0
e_291_153 0
e_291_448 0
e_292_148 0
e_292_283 0
e_292_460 0
e_292_286 0
e_292_126 0
e_292_397 0
e_292_30 0
e_292_153 0
e_292_448 0
e_293_204 0
e_293_367 0
e_293_329 0
e_293_59 0
e_293_128 0
e_293_144 0
e_293_153 0
e_293_444 0
e_294_51 0
e_294_214 0
e_294_153 0
e_295_151 0
e_295_269 0
e_295_267 0
e_295_153 0
e_296_374 0
e_296_57 0
e_296_234 0
e_296_153 0
e_297_401 0
e_297_416 0
e_297_432 0
e_297_10 0
e_297_270 0
e_297_359 0
e_297_218 0
e_297_298 0
e_297_22 0
e_297_153 0
e_297_96 0
e_298_381 0
e_298_153 0
e_298_275 0
e_298_409 0
e_298_463 0
e_298_326 0
e_299_51 0
e_299_214 0
e_299_153 0
e_300_49 0
e_300_151 0
e_300_269 0
e_300_153 0
e_301_153 0
e_301_481 0
e_302_276 0
e_302_26 0
e_302_393 0
e_302_149 0
e_302_316 0
e_302_434 0
e_302_429 0
e_302_210 0
e_302_335 0
e_303_276 0
e_303_393 0
e_303_149 0
e_303_4 0
e_303_434 0
e_303_316 0
e_303_429 0
e_303_210 0
e_303_335 0
e_304_354 0
e_304_90 0
e_304_178 0
e_304_153 0
e_305_417 0
e_305_86 0
e_305_153 0
e_305_348 0
e_305_56 0
e_305_8 0
e_305_373 0
e_305_88 1
e_306_51 0
e_306_214 0
e_306_153 0
e_307_367 0
e_307_329 0
e_307_59 0
e_307_144 0
e_307_204 0
e_307_153 0
e_307_444 0
e_308_64 0
e_308_75 0
e_308_98 0
e_308_85 0
e_308_6 0
e_308_333 0
e_308_407 0
e_308_108 0
e_308_153 0
e_309_401 0
e_309_432 0
e_309_10 0
e_309_270 0
e_309_359 0
e_309_218 0
e_309_298 0
e_309_22 0
e_309_153 0
e_309_96 0
e_310_211 0
e_310_11 0
e_310_153 0
e_310_370 0
e_311_347 0
e_311_97 0
e_311_356 0
e_311_139 0
e_311_160 0
e_311_285 0
e_311_179 0
e_311_119 0
e_311_35 0
e_311_153 0
e_312_161 0
e_312_241 0
e_312_346 0
e_312_147 0
e_312_153 0
e_312_41 0
e_313_381 0
e_313_153 0
e_313_463 0
e_313_275 0
e_313_409 0
e_313_125 0
e_313_326 0
e_314_354 0
e_314_90 0
e_314_178 0
e_314_153 0
e_315_433 0
e_315_390 0
e_315_235 0
e_315_261 0
e_315_457 0
e_315_408 0
e_315_153 0
e_315_312 0
e_316_204 0
e_316_367 0
e_316_329 0
e_316_59 0
e_316_128 0
e_316_144 0
e_316_153 0
e_317_404 0
e_317_321 0
e_317_123 0
e_317_153 0
e_318_250 0
e_318_361 0
e_318_138 0
e_318_153 0
e_318_302 0
e_319_401 0
e_319_416 0
e_319_432 0
e_319_10 0
e_319_270 0
e_319_359 0
e_319_218 0
e_319_298 0
e_319_22 0
e_319_153 0
e_319_96 0
e_320_459 0
e_320_153 0
e_321_109 0
e_321_153 0
e_321_127 0
e_322_204 0
e_322_329 0
e_322_59 0
e_322_128 0
e_322_144 0
e_322_153 0
e_322_444 0
e_323_141 0
e_323_392 0
e_323_153 0
e_324_250 0
e_324_361 0
e_324_138 0
e_324_153 0
e_324_302 0
e_325_132 0
e_325_390 0
e_325_261 0
e_325_235 0
e_325_433 0
e_325_457 0
e_325_408 0
e_325_153 0
e_325_312 0
e_326_37 0
e_326_309 0
e_326_31 0
e_326_131 0
e_326_215 0
e_326_62 0
e_326_7 0
e_326_205 0
e_326_300 0
e_327_89 0
e_327_304 0
e_327_426 0
e_327_55 0
e_327_192 0
e_327_153 0
e_327_271 0
e_328_46 0
e_328_206 0
e_328_485 0
e_328_436 0
e_328_153 0
e_328_377 0
e_329_158 0
e_329_282 0
e_329_153 0
e_330_73 0
e_330_153 0
e_331_417 0
e_331_86 0
e_331_153 0
e_331_348 0
e_331_56 0
e_331_8 0
e_331_373 0
e_331_88 0
e_332_250 0
e_332_361 0
e_332_153 0
e_332_302 0
e_333_388 0
e_333_172 0
e_333_284 0
e_333_153 0
e_333_198 0
e_334_404 0
e_334_229 0
e_334_321 0
e_334_123 0
e_334_153 0
e_335_401 0
e_335_416 0
e_335_432 0
e_335_270 0
e_335_359 0
e_335_218 0
e_335_298 0
e_335_22 0
e_335_153 0
e_335_96 0
e_336_37 0
e_336_309 0
e_336_31 0
e_336_131 0
e_336_105 0
e_336_215 0
e_336_62 0
e_336_7 0
e_336_300 0
e_337_204 0
e_337_367 0
e_337_329 0
e_337_59 0
e_337_128 0
e_337_144 0
e_337_153 0
e_337_444 0
e_338_417 0
e_338_373 0
e_338_153 0
e_338_56 0
e_338_8 0
e_338_86 0
e_338_88 0
e_339_177 0
e_339_68 0
e_339_173 0
e_339_143 0
e_339_17 0
e_339_351 0
e_339_153 0
e_339_43 0
e_340_453 0
e_340_153 0
e_341_221 0
e_341_115 0
e_341_402 0
e_341_278 0
e_341_70 0
e_341_225 0
e_341_484 0
e_341_153 0
e_341_343 0
e_342_417 0
e_342_86 0
e_342_153 0
e_342_348 0
e_342_56 0
e_342_8 0
e_342_373 0
e_342_88 0
e_343_336 0
e_343_102 0
e_343_268 0
e_343_134 0
e_343_153 0
e_343_364 0
e_344_73 0
e_344_303 0
e_344_153 0
e_345_443 0
e_345_170 0
e_345_153 0
e_346_158 0
e_346_282 0
e_346_153 0
e_347_446 0
e_347_46 0
e_347_206 0
e_347_436 0
e_347_153 0
e_347_485 0
e_348_443 0
e_348_170 0
e_348_153 0
e_349_417 0
e_349_373 0
e_349_153 0
e_349_348 0
e_349_86 0
e_349_8 0
e_349_88 0
e_350_404 0
e_350_229 0
e_350_321 0
e_350_123 0
e_350_153 0
e_351_4 0
e_351_26 0
e_351_393 0
e_351_149 0
e_351_316 0
e_351_434 0
e_351_429 0
e_351_210 0
e_351_335 0
e_352_49 0
e_352_151 0
e_352_269 0
e_352_267 0
e_352_153 0
e_353_211 0
e_353_67 0
e_353_11 0
e_353_153 0
e_353_370 0
e_354_276 0
e_354_26 0
e_354_393 0
e_354_149 0
e_354_4 0
e_354_434 0
e_354_316 0
e_354_429 0
e_354_210 0
e_355_446 0
e_355_46 0
e_355_206 0
e_355_485 0
e_355_436 0
e_355_153 0
e_355_377 0
e_356_137 0
e_356_5 0
e_356_48 0
e_356_153 0
e_357_336 0
e_357_102 0
e_357_422 0
e_357_268 0
e_357_134 0
e_357_153 0
e_357_364 0
e_358_172 0
e_358_284 0
e_358_153 0
e_358_388 0
e_359_67 0
e_359_211 0
e_359_153 0
e_359_370 0
e_360_336 0
e_360_102 0
e_360_422 0
e_360_268 0
e_360_134 0
e_360_153 0
e_360_364 0
e_361_459 0
e_361_153 0
e_361_481 0
e_362_204 0
e_362_367 0
e_362_329 0
e_362_59 0
e_362_128 0
e_362_144 0
e_362_153 0
e_362_444 0
e_363_306 0
e_363_233 0
e_363_308 0
e_363_403 0
e_363_445 1
e_363_14 0
e_363_236 0
e_363_391 0
e_363_479 0
e_363_153 0
e_363_365 0
e_364_73 0
e_364_303 0
e_364_153 0
e_365_417 0
e_365_86 0
e_365_153 0
e_365_348 0
e_365_56 0
e_365_8 0
e_365_373 0
e_365_88 0
e_366_443 0
e_366_153 0
e_367_354 0
e_367_90 0
e_367_178 0
e_367_153 0
e_368_336 0
e_368_102 0
e_368_422 0
e_368_268 0
e_368_134 0
e_368_153 0
e_368_364 0
e_369_15 0
e_369_216 0
e_369_153 0
e_369_152 0
e_370_37 0
e_370_300 0
e_370_309 0
e_370_31 0
e_370_105 0
e_370_215 0
e_370_62 0
e_370_205 0
e_370_131 0
e_371_347 0
e_371_97 0
e_371_356 0
e_371_139 0
e_371_160 0
e_371_285 0
e_371_179 0
e_371_119 0
e_371_35 0
e_371_153 0
e_371_399 0
e_372_390 0
e_372_132 0
e_372_235 0
e_372_261 0
e_372_433 0
e_372_408 0
e_372_153 0
e_372_312 0
e_373_354 0
e_373_90 0
e_373_178 0
e_373_153 0
e_374_276 0
e_374_26 0
e_374_393 0
e_374_149 0
e_374_4 0
e_374_316 0
e_374_429 0
e_374_434 0
e_374_335 0
e_375_416 0
e_375_432 0
e_375_10 0
e_375_270 0
e_375_359 0
e_375_218 0
e_375_298 0
e_375_22 0
e_375_153 0
e_375_96 0
e_376_401 0
e_376_416 0
e_376_432 0
e_376_10 0
e_376_270 0
e_376_359 0
e_376_218 0
e_376_22 0
e_376_153 0
e_376_96 0
e_377_374 0
e_377_57 0
e_377_234 0
e_377_153 0
e_378_240 0
e_378_196 0
e_378_153 0
e_379_177 0
e_379_173 0
e_379_324 0
e_379_143 0
e_379_17 0
e_379_351 0
e_379_153 0
e_379_43 0
e_380_216 0
e_380_15 0
e_380_104 0
e_380_153 0
e_380_152 0
e_381_276 0
e_381_393 0
e_381_149 0
e_381_4 0
e_381_434 0
e_381_316 0
e_381_429 0
e_381_210 0
e_381_335 0
e_382_148 0
e_382_283 0
e_382_460 0
e_382_126 0
e_382_397 0
e_382_30 0
e_382_153 0
e_382_448 0
e_383_216 0
e_383_15 0
e_383_104 0
e_383_153 0
e_383_152 0
e_384_463 0
e_384_125 0
e_384_275 0
e_384_153 0
e_384_326 0
e_384_409 0
e_385_148 0
e_385_283 0
e_385_460 0
e_385_286 0
e_385_126 0
e_385_397 0
e_385_30 0
e_385_153 0
e_385_448 0
e_386_158 0
e_386_282 0
e_386_153 0
e_387_37 0
e_387_205 0
e_387_31 0
e_387_131 0
e_387_105 0
e_387_309 0
e_387_62 0
e_387_7 0
e_387_300 0
e_388_459 0
e_388_153 0
e_388_481 0
e_389_137 0
e_389_5 0
e_389_48 0
e_389_153 0
e_389_107 0
e_390_404 0
e_390_229 0
e_390_123 0
e_390_153 0
e_391_216 0
e_391_15 0
e_391_104 0
e_391_153 0
e_391_152 0
e_392_37 0
e_392_309 0
e_392_31 0
e_392_131 0
e_392_105 0
e_392_215 0
e_392_62 0
e_392_205 0
e_392_7 0
e_393_216 0
e_393_104 0
e_393_153 0
e_393_152 0
e_394_49 0
e_394_269 0
e_394_267 0
e_394_153 0
e_395_89 0
e_395_304 0
e_395_426 0
e_395_55 0
e_395_192 0
e_395_153 0
e_395_271 0
e_396_73 0
e_396_303 0
e_396_153 0
e_397_276 0
e_397_393 0
e_397_149 0
e_397_4 0
e_397_434 0
e_397_316 0
e_397_429 0
e_397_210 0
e_397_335 0
e_398_280 0
e_398_470 0
e_398_477 0
e_398_197 0
e_398_79 0
e_398_226 0
e_398_181 0
e_398_371 0
e_398_305 1
e_398_153 0
e_398_191 0
e_399_89 0
e_399_426 0
e_399_304 0
e_399_55 0
e_399_153 0
e_399_271 0
e_400_443 0
e_400_170 0
e_400_153 0
e_401_446 0
e_401_46 0
e_401_206 0
e_401_436 0
e_401_153 0
e_401_377 0
e_402_172 0
e_402_284 0
e_402_153 0
e_402_198 0
e_403_347 0
e_403_97 0
e_403_356 0
e_403_139 0
e_403_160 0
e_403_285 0
e_403_179 0
e_403_119 0
e_403_35 0
e_403_153 0
e_403_399 0
e_404_37 0
e_404_205 0
e_404_215 0
e_404_131 0
e_404_105 0
e_404_309 0
e_404_62 0
e_404_7 0
e_404_300 0
e_405_89 0
e_405_304 0
e_405_55 0
e_405_192 0
e_405_153 0
e_405_271 0
e_406_276 0
e_406_26 0
e_406_393 0
e_406_149 0
e_406_4 0
e_406_434 0
e_406_429 0
e_406_210 0
e_406_335 0
e_407_37 0
e_407_300 0
e_407_309 0
e_407_31 0
e_407_105 1
e_407_215 0
e_407_62 0
e_407_205 0
e_407_7 0
e_408_240 0
e_408_196 0
e_408_153 0
e_409_158 0
e_409_282 0
e_409_153 0
e_410_374 0
e_410_57 0
e_410_153 0
e_411_221 0
e_411_115 0
e_411_402 0
e_411_70 0
e_411_278 0
e_411_484 0
e_411_153 0
e_411_343 0
e_412_309 0
e_412_31 0
e_412_131 0
e_412_105 0
e_412_215 0
e_412_62 0
e_412_7 0
e_412_205 0
e_412_300 0
e_413_132 0
e_413_390 0
e_413_261 0
e_413_235 0
e_413_433 0
e_413_457 0
e_413_408 0
e_413_153 0
e_413_312 0
e_414_381 0
e_414_153 0
e_414_463 0
e_414_275 0
e_414_409 0
e_414_125 0
e_414_326 0
e_415_392 0
e_415_153 0
e_416_37 0
e_416_205 0
e_416_31 0
e_416_131 0
e_416_105 0
e_416_215 0
e_416_62 0
e_416_7 0
e_416_300 0
e_417_276 0
e_417_26 0
e_417_393 0
e_417_149 0
e_417_4 0
e_417_316 0
e_417_210 0
e_417_434 0
e_417_335 0
e_418_417 0
e_418_86 0
e_418_153 0
e_418_348 0
e_418_56 0
e_418_8 0
e_418_373 0
e_418_88 0
e_419_412 0
e_419_153 0
e_419_406 0
e_420_417 0
e_420_86 0
e_420_153 0
e_420_348 0
e_420_56 0
e_420_8 0
e_420_373 0
e_420_88 0
e_421_64 0
e_421_75 0
e_421_98 0
e_421_85 0
e_421_108 0
e_421_333 0
e_421_407 0
e_421_153 0
e_422_354 0
e_422_178 0
e_422_153 0
e_423_49 0
e_423_151 0
e_423_269 0
e_423_267 0
e_423_153 0
e_424_388 0
e_424_172 0
e_424_284 0
e_424_153 0
e_424_198 0
e_425_109 0
e_425_153 0
e_426_4 0
e_426_26 0
e_426_393 0
e_426_149 0
e_426_316 0
e_426_434 0
e_426_429 0
e_426_210 0
e_426_335 0
e_427_134 0
e_427_102 0
e_427_422 0
e_427_268 0
e_427_364 0
e_427_153 0
e_428_141 0
e_428_392 0
e_428_153 0
e_429_86 0
e_429_153 0
e_429_373 0
e_429_348 0
e_429_56 0
e_429_8 0
e_429_88 0
e_430_433 0
e_430_132 0
e_430_235 0
e_430_261 0
e_430_457 0
e_430_408 0
e_430_153 0
e_430_312 0
e_431_381 0
e_431_153 0
e_431_463 0
e_431_275 0
e_431_125 0
e_431_409 0
e_432_137 0
e_432_107 0
e_432_48 0
e_432_153 0
e_433_412 0
e_433_153 0
e_433_406 0
e_434_51 0
e_434_153 1
e_435_51 0
e_435_214 0
e_435_153 0
e_436_276 0
e_436_26 0
e_436_393 0
e_436_149 0
e_436_316 0
e_436_434 0
e_436_429 0
e_436_210 0
e_436_335 0
e_437_68 0
e_437_177 0
e_437_173 0
e_437_324 0
e_437_143 0
e_437_351 0
e_437_153 0
e_437_43 0
e_438_216 0
e_438_15 0
e_438_104 0
e_438_153 0
e_438_152 0
e_439_446 0
e_439_46 0
e_439_206 0
e_439_485 0
e_439_436 0
e_439_153 0
e_439_377 0
e_440_381 0
e_440_463 0
e_440_125 0
e_440_409 0
e_440_153 0
e_440_326 0
e_441_90 0
e_441_178 0
e_441_153 0
e_442_204 0
e_442_367 0
e_442_329 0
e_442_59 0
e_442_128 0
e_442_144 0
e_442_153 0
e_442_444 0
e_443_37 0
e_443_300 0
e_443_309 0
e_443_31 0
e_443_105 0
e_443_215 0
e_443_62 0
e_443_205 0
e_443_7 0
e_444_276 0
e_444_26 0
e_444_393 0
e_444_149 0
e_444_4 0
e_444_434 0
e_444_429 0
e_444_210 0
e_444_335 0
e_445_401 0
e_445_416 0
e_445_432 0
e_445_10 0
e_445_270 0
e_445_359 0
e_445_218 0
e_445_298 0
e_445_22 1
e_445_153 0
e_445_96 0
e_446_158 0
e_446_282 0
e_446_153 0
e_447_336 0
e_447_102 0
e_447_422 0
e_447_268 0
e_447_134 0
e_447_153 0
e_447_364 0
e_448_37 0
e_448_309 0
e_448_31 0
e_448_131 0
e_448_215 0
e_448_62 0
e_448_7 0
e_448_205 0
e_448_300 0
e_449_64 0
e_449_75 0
e_449_98 0
e_449_85 0
e_449_6 0
e_449_333 0
e_449_407 0
e_449_108 0
e_449_153 0
e_450_404 0
e_450_229 0
e_450_321 0
e_450_123 0
e_450_153 0
e_451_64 0
e_451_75 0
e_451_98 0
e_451_6 0
e_451_333 0
e_451_407 0
e_451_108 0
e_451_153 0
e_452_374 0
e_452_234 0
e_452_153 0
e_453_276 0
e_453_26 0
e_453_210 0
e_453_149 0
e_453_4 0
e_453_316 0
e_453_429 0
e_453_434 0
e_453_335 0
e_454_89 0
e_454_426 0
e_454_192 0
e_454_304 0
e_454_153 0
e_454_271 0
e_455_89 0
e_455_304 0
e_455_426 0
e_455_55 0
e_455_192 0
e_455_153 0
e_455_271 0
e_456_177 0
e_456_68 0
e_456_324 0
e_456_143 0
e_456_17 0
e_456_351 0
e_456_153 0
e_456_43 0
e_457_37 0
e_457_309 0
e_457_31 0
e_457_131 0
e_457_105 0
e_457_215 0
e_457_62 0
e_457_7 0
e_457_300 0
e_458_221 0
e_458_115 0
e_458_402 0
e_458_278 0
e_458_70 0
e_458_225 0
e_458_484 0
e_458_153 0
e_458_343 0
e_459_37 0
e_459_205 0
e_459_31 0
e_459_131 0
e_459_105 0
e_459_215 0
e_459_62 0
e_459_7 0
e_459_300 0
e_460_250 0
e_460_361 0
e_460_138 0
e_460_153 0
e_460_302 0
e_461_216 0
e_461_15 0
e_461_104 0
e_461_153 0
e_461_152 0
e_462_161 0
e_462_241 0
e_462_452 0
e_462_346 0
e_462_147 0
e_462_153 0
e_462_41 0
e_463_374 0
e_463_57 0
e_463_234 0
e_463_153 0
e_464_141 0
e_464_392 0
e_464_153 0
e_465_388 0
e_465_172 0
e_465_284 0
e_465_153 0
e_465_198 0
e_466_204 0
e_466_367 0
e_466_329 0
e_466_59 0
e_466_128 0
e_466_144 0
e_466_153 0
e_466_444 0
e_467_51 0
e_467_214 0
e_467_153 0
e_468_459 0
e_468_153 0
e_468_481 0
e_469_250 0
e_469_361 0
e_469_138 0
e_469_153 0
e_469_302 0
e_470_64 0
e_470_75 0
e_470_98 0
e_470_85 0
e_470_6 0
e_470_333 0
e_470_407 0
e_470_108 0
e_470_153 0
e_471_387 0
e_471_453 0
e_471_153 0
e_472_173 0
e_472_177 0
e_472_68 0
e_472_324 0
e_472_143 0
e_472_17 0
e_472_351 0
e_472_153 0
e_472_43 0
e_473_51 0
e_473_214 0
e_473_153 0
e_474_158 0
e_474_153 0
e_475_137 0
e_475_5 0
e_475_48 0
e_475_153 0
e_475_107 0
e_476_89 0
e_476_304 0
e_476_426 0
e_476_55 0
e_476_192 0
e_476_153 0
e_477_216 0
e_477_15 0
e_477_104 0
e_477_153 0
e_477_152 0
e_478_158 0
e_478_282 0
e_478_153 0
e_479_204 0
e_479_367 0
e_479_329 0
e_479_59 0
e_479_128 0
e_479_144 0
e_479_153 0
e_479_444 0
e_480_216 0
e_480_15 0
e_480_104 0
e_480_153 0
e_480_152 0
e_481_276 0
e_481_26 0
e_481_393 0
e_481_149 0
e_481_4 0
e_481_434 0
e_481_316 0
e_481_429 0
e_481_210 0
e_482_401 0
e_482_416 0
e_482_432 0
e_482_10 0
e_482_270 0
e_482_218 0
e_482_298 0
e_482_22 0
e_482_153 0
e_482_96 0
e_483_303 0
e_483_153 0
e_484_240 0
e_484_196 0
e_484_153 0
e_485_354 0
e_485_90 0
e_485_178 0
e_485_153 0
